2038020
53,201,179,114,181,60,51,167,133,173,198,162,156,38,126,30,177,118,83,10,220,92,58,213,45,124,18,226,64,28,192,194,135,180,123,217,176,62,71,136,96,193,110,224,16,175,21,100,115,106,183,95,90,8,67,146,48,70,116,19,49,61,101,129,150,52,91,174,23,208,163,219,43,155,210,137,7,44,211,145,11,186,1,166,159,41,50,195,33,214,74,47,57,203,171,131,130,172,85,69,125,197,164,119,29,4,25,182,93,228,161,209,6,35,0,9,199,121,72,112,127,140,218,221,102,165,36,88,2,59,134,82,73,206,42,66,132,111,154,86,80,27,204,191,143,144,222,46,12,153,196,142,75,94,187,84,24,147,205,113,190,78,122,79,148,120,189,65,105,40,76,103,160,178,77,54,39,26,168,3,32,5,229,128,152,87,185,170,149,89,63,31,139,117,158,225,151,200,14,207,68,22,184,15,34,107,81,157,104,215,99,97,188,223,20,169,141,108,227,216,37,202,109,13,56,138,212,98,55,17